benchmark_str_length/p2_10_8-1.dzn
Alphabet = {A,C,G,T};
ns = 10;
nc = 7;
sl = 10;
neighbours = [| Null,Null,Null,Null,Null,Null,Null | I(T),I(C),I(T),Null,Null,Null,Null | Null,Null,Null,Null,Null,Null,Null | I(C),I(G),I(G),I(T),I(G),I(G),I(G) | I(C),I(A),I(G),I(A),Null,Null,Null | I(T),I(C),I(C),Null,Null,Null,Null | I(A),I(G),I(A),I(T),I(G),Null,Null | I(A),I(G),I(C),Null,Null,Null,Null | I(C),I(C),I(T),I(A),Null,Null,Null | I(C),I(C),I(G),I(C),I(G),I(C),Null |];
